(set-logic QF_LIA)
(set-info :ran/ran_5_1.smt2)
(set-info :smt-lib-version 2.0)
(declare-fun x0 () Int)
(declare-fun x1 () Real)
(declare-fun x2 () Real)
(declare-fun x3 () Real)
(declare-fun x4 () Real)
(define-fun ie0 () Bool (<= (+ (* 52 x1) (* 7 x0) ) 75))
(define-fun ie1 () Bool (<= (+ (* 63 x3) (* 12 x4) ) (- 97)))
(define-fun ie2 () Bool (<= (+ (* (- 56) x2) (* 84 x3) ) 69))
(define-fun ie3 () Bool (<= (+ (* (- 41) x4) (* 1 x4) ) 4))
(define-fun ie4 () Bool (<= (+ (* 70 x3) (* 55 x1) ) (- 75)))
(define-fun ie5 () Bool (<= (+ (* 58 x0) (* 58 x0) ) 32))
(define-fun ie6 () Bool (<= (+ (* (- 46) x2) (* (- 7) x3) ) 99))
(define-fun ie7 () Bool (<= (+ (* (- 79) x1) (* 93 x0) ) (- 60)))
(define-fun ie8 () Bool (<= (+ (* 48 x4) (* (- 70) x4) ) 73))
(define-fun ie9 () Bool (<= (+ (* 99 x3) (* 14 x0) ) 57))
(assert ie0)
(assert ie1)
(assert ie2)
(assert ie3)
(assert ie4)
(assert ie5)
(assert ie6)
(assert ie7)
(assert ie8)
(assert ie9)
(check-sat)
(exit)
